Minimize
	value: tt

Subject to
tt + 1000 s_1_1 > 0.0
tt - t_1_1 - 1000.224726 s_1_1  + 0.224726 s_1_7  > -999.093467
tt + 1000 s_2_1 > 0.0
tt - t_2_1 - 1000.238744 s_2_1  + 0.238744 s_2_7  > -994.351661
tt + 1000 s_1_2 > 0.0
tt - t_1_2 - 1000.224726 s_1_2  + 0.224726 s_1_8  > -999.059000
tt + 1000 s_2_2 > 0.0
tt - t_2_2 - 1000.238744 s_2_2  + 0.238744 s_2_8  > -993.606272
tt + 1000 s_1_3 > 0.0
tt - t_1_3 - 1000.224726 s_1_3  + 0.224726 s_1_8  > -998.745564
tt + 1000 s_2_3 > 0.0
tt - t_2_3 - 1000.238744 s_2_3  + 0.238744 s_2_8  > -990.661918
tt + 1000 s_1_4 > 0.0
tt - t_1_4 - 1000.449451 s_1_4  + 0.224726 s_1_8  + 0.224726 s_1_3  > -999.285589
tt + 1000 s_2_4 > 0.0
tt - t_2_4 - 1000.477489 s_2_4  + 0.238744 s_2_8  + 0.238744 s_2_3  > -994.554741
tt + 1000 s_1_5 > 0.0
tt - t_1_5 - 1000.449451 s_1_5  + 0.224726 s_1_7  + 0.224726 s_1_8  > -999.340156
tt + 1000 s_2_5 > 0.0
tt - t_2_5 - 1000.477489 s_2_5  + 0.238744 s_2_7  + 0.238744 s_2_8  > -995.594508
tt + 1000 s_1_6 > 0.0
tt - t_1_6 - 1001.123629 s_1_6  + 0.224726 s_1_1  + 0.224726 s_1_2  + 0.224726 s_1_3  + 0.224726 s_1_5  + 0.224726 s_1_4  > -999.924222
tt + 1000 s_2_6 > 0.0
tt - t_2_6 - 1001.193722 s_2_6  + 0.238744 s_2_1  + 0.238744 s_2_2  + 0.238744 s_2_3  + 0.238744 s_2_5  + 0.238744 s_2_4  > -996.906000
tt + 1000 s_1_7 > 0.0
tt - t_1_7 - 1000.000000 s_1_7  > -998.314000
tt + 1000 s_2_7 > 0.0
tt - t_2_7 - 1000.000000 s_2_7  > -995.531681
tt + 1000 s_1_8 > 0.0
tt - t_1_8 - 1000.000000 s_1_8  > -998.321400
tt + 1000 s_2_8 > 0.0
tt - t_2_8 - 1000.000000 s_2_8  > -994.765200
s_1_1 + s_2_1 = 1
s_1_2 + s_2_2 = 1
s_1_3 + s_2_3 = 1
s_1_4 + s_2_4 = 1
s_1_5 + s_2_5 = 1
s_1_6 + s_2_6 = 1
s_1_7 + s_2_7 = 1
s_1_8 + s_2_8 = 1
s_1_1 + s_1_2 + 1000 r_1_1_2 >= 2
- s_1_1 - s_1_2 - 1000 r_1_1_2 >= -1001
t_1_1 - t_1_2 - 1000.000000 u_1_1_2 - 0.224726 s_1_2  + 0.224726 s_1_8  + 2000.000000 r_1_1_2 > -999.059000
s_2_1 + s_2_2 + 1000 r_2_1_2 >= 2
- s_2_1 - s_2_2 - 1000 r_2_1_2 >= -1001
t_2_1 - t_2_2 - 1000.000000 u_2_1_2 - 0.238744 s_2_2  + 0.238744 s_2_8  + 2000.000000 r_2_1_2 > -993.606272
s_1_1 + s_1_3 + 1000 r_1_1_3 >= 2
- s_1_1 - s_1_3 - 1000 r_1_1_3 >= -1001
t_1_1 - t_1_3 - 1000.000000 u_1_1_3 - 0.224726 s_1_3  + 0.224726 s_1_8  + 2000.000000 r_1_1_3 > -998.745564
s_2_1 + s_2_3 + 1000 r_2_1_3 >= 2
- s_2_1 - s_2_3 - 1000 r_2_1_3 >= -1001
t_2_1 - t_2_3 - 1000.000000 u_2_1_3 - 0.238744 s_2_3  + 0.238744 s_2_8  + 2000.000000 r_2_1_3 > -990.661918
s_1_1 + s_1_4 + 1000 r_1_1_4 >= 2
- s_1_1 - s_1_4 - 1000 r_1_1_4 >= -1001
t_1_1 - t_1_4 - 1000.000000 u_1_1_4 - 0.449451 s_1_4  + 0.224726 s_1_8  + 0.224726 s_1_3  + 2000.000000 r_1_1_4 > -999.285589
s_2_1 + s_2_4 + 1000 r_2_1_4 >= 2
- s_2_1 - s_2_4 - 1000 r_2_1_4 >= -1001
t_2_1 - t_2_4 - 1000.000000 u_2_1_4 - 0.477489 s_2_4  + 0.238744 s_2_8  + 0.238744 s_2_3  + 2000.000000 r_2_1_4 > -994.554741
s_1_1 + s_1_5 + 1000 r_1_1_5 >= 2
- s_1_1 - s_1_5 - 1000 r_1_1_5 >= -1001
t_1_1 - t_1_5 - 1000.000000 u_1_1_5 - 0.449451 s_1_5  + 0.224726 s_1_7  + 0.224726 s_1_8  + 2000.000000 r_1_1_5 > -999.340156
s_2_1 + s_2_5 + 1000 r_2_1_5 >= 2
- s_2_1 - s_2_5 - 1000 r_2_1_5 >= -1001
t_2_1 - t_2_5 - 1000.000000 u_2_1_5 - 0.477489 s_2_5  + 0.238744 s_2_7  + 0.238744 s_2_8  + 2000.000000 r_2_1_5 > -995.594508
t_1_6 - t_1_1 - 1000.224726 s_1_1  + 0.224726 s_1_7  > -999.093467
t_1_6 - t_2_1 - 1000.238744 s_2_1  + 0.238744 s_2_7  > -994.351661
t_2_6 - t_1_1 - 1000.224726 s_1_1  + 0.224726 s_1_7  > -999.093467
t_2_6 - t_2_1 - 1000.238744 s_2_1  + 0.238744 s_2_7  > -994.351661
t_1_1 - t_1_7 - 1000.000000 s_1_7  > -998.314000
t_1_1 - t_2_7 - 1000.000000 s_2_7  > -995.531681
t_2_1 - t_1_7 - 1000.000000 s_1_7  > -998.314000
t_2_1 - t_2_7 - 1000.000000 s_2_7  > -995.531681
s_1_1 + s_1_8 + 1000 r_1_1_8 >= 2
- s_1_1 - s_1_8 - 1000 r_1_1_8 >= -1001
t_1_1 - t_1_8 - 1000.000000 u_1_1_8 - 0.000000 s_1_8  + 2000.000000 r_1_1_8 > -998.321400
s_2_1 + s_2_8 + 1000 r_2_1_8 >= 2
- s_2_1 - s_2_8 - 1000 r_2_1_8 >= -1001
t_2_1 - t_2_8 - 1000.000000 u_2_1_8 - 0.000000 s_2_8  + 2000.000000 r_2_1_8 > -994.765200
s_1_2 + s_1_1 + 1000 r_1_1_2 >= 2
- s_1_2 - s_1_1 - 1000 r_1_1_2 >= -1001
t_1_2 - t_1_1 + 1000.000000 u_1_1_2 - 0.224726 s_1_1  + 0.224726 s_1_7  + 2000.000000 r_1_1_2 > 0.906533
s_2_2 + s_2_1 + 1000 r_2_1_2 >= 2
- s_2_2 - s_2_1 - 1000 r_2_1_2 >= -1001
t_2_2 - t_2_1 + 1000.000000 u_2_1_2 - 0.238744 s_2_1  + 0.238744 s_2_7  + 2000.000000 r_2_1_2 > 5.648339
s_1_2 + s_1_3 + 1000 r_1_2_3 >= 2
- s_1_2 - s_1_3 - 1000 r_1_2_3 >= -1001
t_1_2 - t_1_3 - 1000.000000 u_1_2_3 - 0.224726 s_1_3  + 0.224726 s_1_8  + 2000.000000 r_1_2_3 > -998.745564
s_2_2 + s_2_3 + 1000 r_2_2_3 >= 2
- s_2_2 - s_2_3 - 1000 r_2_2_3 >= -1001
t_2_2 - t_2_3 - 1000.000000 u_2_2_3 - 0.238744 s_2_3  + 0.238744 s_2_8  + 2000.000000 r_2_2_3 > -990.661918
s_1_2 + s_1_4 + 1000 r_1_2_4 >= 2
- s_1_2 - s_1_4 - 1000 r_1_2_4 >= -1001
t_1_2 - t_1_4 - 1000.000000 u_1_2_4 - 0.449451 s_1_4  + 0.224726 s_1_8  + 0.224726 s_1_3  + 2000.000000 r_1_2_4 > -999.285589
s_2_2 + s_2_4 + 1000 r_2_2_4 >= 2
- s_2_2 - s_2_4 - 1000 r_2_2_4 >= -1001
t_2_2 - t_2_4 - 1000.000000 u_2_2_4 - 0.477489 s_2_4  + 0.238744 s_2_8  + 0.238744 s_2_3  + 2000.000000 r_2_2_4 > -994.554741
s_1_2 + s_1_5 + 1000 r_1_2_5 >= 2
- s_1_2 - s_1_5 - 1000 r_1_2_5 >= -1001
t_1_2 - t_1_5 - 1000.000000 u_1_2_5 - 0.449451 s_1_5  + 0.224726 s_1_7  + 0.224726 s_1_8  + 2000.000000 r_1_2_5 > -999.340156
s_2_2 + s_2_5 + 1000 r_2_2_5 >= 2
- s_2_2 - s_2_5 - 1000 r_2_2_5 >= -1001
t_2_2 - t_2_5 - 1000.000000 u_2_2_5 - 0.477489 s_2_5  + 0.238744 s_2_7  + 0.238744 s_2_8  + 2000.000000 r_2_2_5 > -995.594508
t_1_6 - t_1_2 - 1000.224726 s_1_2  + 0.224726 s_1_8  > -999.059000
t_1_6 - t_2_2 - 1000.238744 s_2_2  + 0.238744 s_2_8  > -993.606272
t_2_6 - t_1_2 - 1000.224726 s_1_2  + 0.224726 s_1_8  > -999.059000
t_2_6 - t_2_2 - 1000.238744 s_2_2  + 0.238744 s_2_8  > -993.606272
s_1_2 + s_1_7 + 1000 r_1_2_7 >= 2
- s_1_2 - s_1_7 - 1000 r_1_2_7 >= -1001
t_1_2 - t_1_7 - 1000.000000 u_1_2_7 - 0.000000 s_1_7  + 2000.000000 r_1_2_7 > -998.314000
s_2_2 + s_2_7 + 1000 r_2_2_7 >= 2
- s_2_2 - s_2_7 - 1000 r_2_2_7 >= -1001
t_2_2 - t_2_7 - 1000.000000 u_2_2_7 - 0.000000 s_2_7  + 2000.000000 r_2_2_7 > -995.531681
t_1_2 - t_1_8 - 1000.000000 s_1_8  > -998.321400
t_1_2 - t_2_8 - 1000.000000 s_2_8  > -994.765200
t_2_2 - t_1_8 - 1000.000000 s_1_8  > -998.321400
t_2_2 - t_2_8 - 1000.000000 s_2_8  > -994.765200
s_1_3 + s_1_1 + 1000 r_1_1_3 >= 2
- s_1_3 - s_1_1 - 1000 r_1_1_3 >= -1001
t_1_3 - t_1_1 + 1000.000000 u_1_1_3 - 0.224726 s_1_1  + 0.224726 s_1_7  + 2000.000000 r_1_1_3 > 0.906533
s_2_3 + s_2_1 + 1000 r_2_1_3 >= 2
- s_2_3 - s_2_1 - 1000 r_2_1_3 >= -1001
t_2_3 - t_2_1 + 1000.000000 u_2_1_3 - 0.238744 s_2_1  + 0.238744 s_2_7  + 2000.000000 r_2_1_3 > 5.648339
s_1_3 + s_1_2 + 1000 r_1_2_3 >= 2
- s_1_3 - s_1_2 - 1000 r_1_2_3 >= -1001
t_1_3 - t_1_2 + 1000.000000 u_1_2_3 - 0.224726 s_1_2  + 0.224726 s_1_8  + 2000.000000 r_1_2_3 > 0.941000
s_2_3 + s_2_2 + 1000 r_2_2_3 >= 2
- s_2_3 - s_2_2 - 1000 r_2_2_3 >= -1001
t_2_3 - t_2_2 + 1000.000000 u_2_2_3 - 0.238744 s_2_2  + 0.238744 s_2_8  + 2000.000000 r_2_2_3 > 6.393728
t_1_4 - t_1_3 - 1000.224726 s_1_3  + 0.224726 s_1_8  > -998.745564
t_1_4 - t_2_3 - 1000.238744 s_2_3  + 0.238744 s_2_8  > -990.661918
t_2_4 - t_1_3 - 1000.224726 s_1_3  + 0.224726 s_1_8  > -998.745564
t_2_4 - t_2_3 - 1000.238744 s_2_3  + 0.238744 s_2_8  > -990.661918
s_1_3 + s_1_5 + 1000 r_1_3_5 >= 2
- s_1_3 - s_1_5 - 1000 r_1_3_5 >= -1001
t_1_3 - t_1_5 - 1000.000000 u_1_3_5 - 0.449451 s_1_5  + 0.224726 s_1_7  + 0.224726 s_1_8  + 2000.000000 r_1_3_5 > -999.340156
s_2_3 + s_2_5 + 1000 r_2_3_5 >= 2
- s_2_3 - s_2_5 - 1000 r_2_3_5 >= -1001
t_2_3 - t_2_5 - 1000.000000 u_2_3_5 - 0.477489 s_2_5  + 0.238744 s_2_7  + 0.238744 s_2_8  + 2000.000000 r_2_3_5 > -995.594508
t_1_6 - t_1_3 - 1000.224726 s_1_3  + 0.224726 s_1_8  > -998.745564
t_1_6 - t_2_3 - 1000.238744 s_2_3  + 0.238744 s_2_8  > -990.661918
t_2_6 - t_1_3 - 1000.224726 s_1_3  + 0.224726 s_1_8  > -998.745564
t_2_6 - t_2_3 - 1000.238744 s_2_3  + 0.238744 s_2_8  > -990.661918
s_1_3 + s_1_7 + 1000 r_1_3_7 >= 2
- s_1_3 - s_1_7 - 1000 r_1_3_7 >= -1001
t_1_3 - t_1_7 - 1000.000000 u_1_3_7 - 0.000000 s_1_7  + 2000.000000 r_1_3_7 > -998.314000
s_2_3 + s_2_7 + 1000 r_2_3_7 >= 2
- s_2_3 - s_2_7 - 1000 r_2_3_7 >= -1001
t_2_3 - t_2_7 - 1000.000000 u_2_3_7 - 0.000000 s_2_7  + 2000.000000 r_2_3_7 > -995.531681
t_1_3 - t_1_8 - 1000.000000 s_1_8  > -998.321400
t_1_3 - t_2_8 - 1000.000000 s_2_8  > -994.765200
t_2_3 - t_1_8 - 1000.000000 s_1_8  > -998.321400
t_2_3 - t_2_8 - 1000.000000 s_2_8  > -994.765200
s_1_4 + s_1_1 + 1000 r_1_1_4 >= 2
- s_1_4 - s_1_1 - 1000 r_1_1_4 >= -1001
t_1_4 - t_1_1 + 1000.000000 u_1_1_4 - 0.224726 s_1_1  + 0.224726 s_1_7  + 2000.000000 r_1_1_4 > 0.906533
s_2_4 + s_2_1 + 1000 r_2_1_4 >= 2
- s_2_4 - s_2_1 - 1000 r_2_1_4 >= -1001
t_2_4 - t_2_1 + 1000.000000 u_2_1_4 - 0.238744 s_2_1  + 0.238744 s_2_7  + 2000.000000 r_2_1_4 > 5.648339
s_1_4 + s_1_2 + 1000 r_1_2_4 >= 2
- s_1_4 - s_1_2 - 1000 r_1_2_4 >= -1001
t_1_4 - t_1_2 + 1000.000000 u_1_2_4 - 0.224726 s_1_2  + 0.224726 s_1_8  + 2000.000000 r_1_2_4 > 0.941000
s_2_4 + s_2_2 + 1000 r_2_2_4 >= 2
- s_2_4 - s_2_2 - 1000 r_2_2_4 >= -1001
t_2_4 - t_2_2 + 1000.000000 u_2_2_4 - 0.238744 s_2_2  + 0.238744 s_2_8  + 2000.000000 r_2_2_4 > 6.393728
s_1_4 + s_1_5 + 1000 r_1_4_5 >= 2
- s_1_4 - s_1_5 - 1000 r_1_4_5 >= -1001
t_1_4 - t_1_5 - 1000.000000 u_1_4_5 - 0.449451 s_1_5  + 0.224726 s_1_7  + 0.224726 s_1_8  + 2000.000000 r_1_4_5 > -999.340156
s_2_4 + s_2_5 + 1000 r_2_4_5 >= 2
- s_2_4 - s_2_5 - 1000 r_2_4_5 >= -1001
t_2_4 - t_2_5 - 1000.000000 u_2_4_5 - 0.477489 s_2_5  + 0.238744 s_2_7  + 0.238744 s_2_8  + 2000.000000 r_2_4_5 > -995.594508
t_1_6 - t_1_4 - 1000.449451 s_1_4  + 0.224726 s_1_8  + 0.224726 s_1_3  > -999.285589
t_1_6 - t_2_4 - 1000.477489 s_2_4  + 0.238744 s_2_8  + 0.238744 s_2_3  > -994.554741
t_2_6 - t_1_4 - 1000.449451 s_1_4  + 0.224726 s_1_8  + 0.224726 s_1_3  > -999.285589
t_2_6 - t_2_4 - 1000.477489 s_2_4  + 0.238744 s_2_8  + 0.238744 s_2_3  > -994.554741
s_1_4 + s_1_7 + 1000 r_1_4_7 >= 2
- s_1_4 - s_1_7 - 1000 r_1_4_7 >= -1001
t_1_4 - t_1_7 - 1000.000000 u_1_4_7 - 0.000000 s_1_7  + 2000.000000 r_1_4_7 > -998.314000
s_2_4 + s_2_7 + 1000 r_2_4_7 >= 2
- s_2_4 - s_2_7 - 1000 r_2_4_7 >= -1001
t_2_4 - t_2_7 - 1000.000000 u_2_4_7 - 0.000000 s_2_7  + 2000.000000 r_2_4_7 > -995.531681
t_1_4 - t_1_8 - 1000.000000 s_1_8  > -998.321400
t_1_4 - t_2_8 - 1000.000000 s_2_8  > -994.765200
t_2_4 - t_1_8 - 1000.000000 s_1_8  > -998.321400
t_2_4 - t_2_8 - 1000.000000 s_2_8  > -994.765200
s_1_5 + s_1_1 + 1000 r_1_1_5 >= 2
- s_1_5 - s_1_1 - 1000 r_1_1_5 >= -1001
t_1_5 - t_1_1 + 1000.000000 u_1_1_5 - 0.224726 s_1_1  + 0.224726 s_1_7  + 2000.000000 r_1_1_5 > 0.906533
s_2_5 + s_2_1 + 1000 r_2_1_5 >= 2
- s_2_5 - s_2_1 - 1000 r_2_1_5 >= -1001
t_2_5 - t_2_1 + 1000.000000 u_2_1_5 - 0.238744 s_2_1  + 0.238744 s_2_7  + 2000.000000 r_2_1_5 > 5.648339
s_1_5 + s_1_2 + 1000 r_1_2_5 >= 2
- s_1_5 - s_1_2 - 1000 r_1_2_5 >= -1001
t_1_5 - t_1_2 + 1000.000000 u_1_2_5 - 0.224726 s_1_2  + 0.224726 s_1_8  + 2000.000000 r_1_2_5 > 0.941000
s_2_5 + s_2_2 + 1000 r_2_2_5 >= 2
- s_2_5 - s_2_2 - 1000 r_2_2_5 >= -1001
t_2_5 - t_2_2 + 1000.000000 u_2_2_5 - 0.238744 s_2_2  + 0.238744 s_2_8  + 2000.000000 r_2_2_5 > 6.393728
s_1_5 + s_1_3 + 1000 r_1_3_5 >= 2
- s_1_5 - s_1_3 - 1000 r_1_3_5 >= -1001
t_1_5 - t_1_3 + 1000.000000 u_1_3_5 - 0.224726 s_1_3  + 0.224726 s_1_8  + 2000.000000 r_1_3_5 > 1.254436
s_2_5 + s_2_3 + 1000 r_2_3_5 >= 2
- s_2_5 - s_2_3 - 1000 r_2_3_5 >= -1001
t_2_5 - t_2_3 + 1000.000000 u_2_3_5 - 0.238744 s_2_3  + 0.238744 s_2_8  + 2000.000000 r_2_3_5 > 9.338082
s_1_5 + s_1_4 + 1000 r_1_4_5 >= 2
- s_1_5 - s_1_4 - 1000 r_1_4_5 >= -1001
t_1_5 - t_1_4 + 1000.000000 u_1_4_5 - 0.449451 s_1_4  + 0.224726 s_1_8  + 0.224726 s_1_3  + 2000.000000 r_1_4_5 > 0.714411
s_2_5 + s_2_4 + 1000 r_2_4_5 >= 2
- s_2_5 - s_2_4 - 1000 r_2_4_5 >= -1001
t_2_5 - t_2_4 + 1000.000000 u_2_4_5 - 0.477489 s_2_4  + 0.238744 s_2_8  + 0.238744 s_2_3  + 2000.000000 r_2_4_5 > 5.445259
t_1_6 - t_1_5 - 1000.449451 s_1_5  + 0.224726 s_1_7  + 0.224726 s_1_8  > -999.340156
t_1_6 - t_2_5 - 1000.477489 s_2_5  + 0.238744 s_2_7  + 0.238744 s_2_8  > -995.594508
t_2_6 - t_1_5 - 1000.449451 s_1_5  + 0.224726 s_1_7  + 0.224726 s_1_8  > -999.340156
t_2_6 - t_2_5 - 1000.477489 s_2_5  + 0.238744 s_2_7  + 0.238744 s_2_8  > -995.594508
t_1_5 - t_1_7 - 1000.000000 s_1_7  > -998.314000
t_1_5 - t_2_7 - 1000.000000 s_2_7  > -995.531681
t_2_5 - t_1_7 - 1000.000000 s_1_7  > -998.314000
t_2_5 - t_2_7 - 1000.000000 s_2_7  > -995.531681
t_1_5 - t_1_8 - 1000.000000 s_1_8  > -998.321400
t_1_5 - t_2_8 - 1000.000000 s_2_8  > -994.765200
t_2_5 - t_1_8 - 1000.000000 s_1_8  > -998.321400
t_2_5 - t_2_8 - 1000.000000 s_2_8  > -994.765200
s_1_7 + s_1_2 + 1000 r_1_2_7 >= 2
- s_1_7 - s_1_2 - 1000 r_1_2_7 >= -1001
t_1_7 - t_1_2 + 1000.000000 u_1_2_7 - 0.224726 s_1_2  + 0.224726 s_1_8  + 2000.000000 r_1_2_7 > 0.941000
s_2_7 + s_2_2 + 1000 r_2_2_7 >= 2
- s_2_7 - s_2_2 - 1000 r_2_2_7 >= -1001
t_2_7 - t_2_2 + 1000.000000 u_2_2_7 - 0.238744 s_2_2  + 0.238744 s_2_8  + 2000.000000 r_2_2_7 > 6.393728
s_1_7 + s_1_3 + 1000 r_1_3_7 >= 2
- s_1_7 - s_1_3 - 1000 r_1_3_7 >= -1001
t_1_7 - t_1_3 + 1000.000000 u_1_3_7 - 0.224726 s_1_3  + 0.224726 s_1_8  + 2000.000000 r_1_3_7 > 1.254436
s_2_7 + s_2_3 + 1000 r_2_3_7 >= 2
- s_2_7 - s_2_3 - 1000 r_2_3_7 >= -1001
t_2_7 - t_2_3 + 1000.000000 u_2_3_7 - 0.238744 s_2_3  + 0.238744 s_2_8  + 2000.000000 r_2_3_7 > 9.338082
s_1_7 + s_1_4 + 1000 r_1_4_7 >= 2
- s_1_7 - s_1_4 - 1000 r_1_4_7 >= -1001
t_1_7 - t_1_4 + 1000.000000 u_1_4_7 - 0.449451 s_1_4  + 0.224726 s_1_8  + 0.224726 s_1_3  + 2000.000000 r_1_4_7 > 0.714411
s_2_7 + s_2_4 + 1000 r_2_4_7 >= 2
- s_2_7 - s_2_4 - 1000 r_2_4_7 >= -1001
t_2_7 - t_2_4 + 1000.000000 u_2_4_7 - 0.477489 s_2_4  + 0.238744 s_2_8  + 0.238744 s_2_3  + 2000.000000 r_2_4_7 > 5.445259
s_1_7 + s_1_8 + 1000 r_1_7_8 >= 2
- s_1_7 - s_1_8 - 1000 r_1_7_8 >= -1001
t_1_7 - t_1_8 - 1000.000000 u_1_7_8 - 0.000000 s_1_8  + 2000.000000 r_1_7_8 > -998.321400
s_2_7 + s_2_8 + 1000 r_2_7_8 >= 2
- s_2_7 - s_2_8 - 1000 r_2_7_8 >= -1001
t_2_7 - t_2_8 - 1000.000000 u_2_7_8 - 0.000000 s_2_8  + 2000.000000 r_2_7_8 > -994.765200
s_1_8 + s_1_1 + 1000 r_1_1_8 >= 2
- s_1_8 - s_1_1 - 1000 r_1_1_8 >= -1001
t_1_8 - t_1_1 + 1000.000000 u_1_1_8 - 0.224726 s_1_1  + 0.224726 s_1_7  + 2000.000000 r_1_1_8 > 0.906533
s_2_8 + s_2_1 + 1000 r_2_1_8 >= 2
- s_2_8 - s_2_1 - 1000 r_2_1_8 >= -1001
t_2_8 - t_2_1 + 1000.000000 u_2_1_8 - 0.238744 s_2_1  + 0.238744 s_2_7  + 2000.000000 r_2_1_8 > 5.648339
s_1_8 + s_1_7 + 1000 r_1_7_8 >= 2
- s_1_8 - s_1_7 - 1000 r_1_7_8 >= -1001
t_1_8 - t_1_7 + 1000.000000 u_1_7_8 - 0.000000 s_1_7  + 2000.000000 r_1_7_8 > 1.686000
s_2_8 + s_2_7 + 1000 r_2_7_8 >= 2
- s_2_8 - s_2_7 - 1000 r_2_7_8 >= -1001
t_2_8 - t_2_7 + 1000.000000 u_2_7_8 - 0.000000 s_2_7  + 2000.000000 r_2_7_8 > 4.468319
Binary
s_1_1
s_2_1
s_1_2
s_2_2
s_1_3
s_2_3
s_1_4
s_2_4
s_1_5
s_2_5
s_1_6
s_2_6
s_1_7
s_2_7
s_1_8
s_2_8
u_1_1_2
r_1_1_2
u_2_1_2
r_2_1_2
u_1_1_3
r_1_1_3
u_2_1_3
r_2_1_3
u_1_1_4
r_1_1_4
u_2_1_4
r_2_1_4
u_1_1_5
r_1_1_5
u_2_1_5
r_2_1_5
u_1_1_8
r_1_1_8
u_2_1_8
r_2_1_8
u_1_2_3
r_1_2_3
u_2_2_3
r_2_2_3
u_1_2_4
r_1_2_4
u_2_2_4
r_2_2_4
u_1_2_5
r_1_2_5
u_2_2_5
r_2_2_5
u_1_2_7
r_1_2_7
u_2_2_7
r_2_2_7
u_1_3_5
r_1_3_5
u_2_3_5
r_2_3_5
u_1_3_7
r_1_3_7
u_2_3_7
r_2_3_7
u_1_4_5
r_1_4_5
u_2_4_5
r_2_4_5
u_1_4_7
r_1_4_7
u_2_4_7
r_2_4_7
u_1_7_8
r_1_7_8
u_2_7_8
r_2_7_8

End
